Route #1: 1 49 37 53 44 39 21 1
Route #2: 1 18 63 51 8 22 62 24 25 33 1
Route #3: 1 11 60 19 6 20 43 4 54 30 1
Route #4: 1 14 27 29 58 45 48 12 1
Route #5: 1 31 5 13 10 3 42 40 46 1
Route #6: 1 47 61 55 1
Route #7: 1 26 41 57 23 59 35 52 1
Route #8: 1 32 7 36 28 9 50 1
Route #9: 1 56 34 38 17 1
Route #10: 1 16 15 2 1
cost 1640.7817627835486